c solution = False
p edge 100 99
e 61 1 1
e 22 1 1
e 85 1 1
e 80 1 1
e 56 80 1
e 99 80 1
e 25 56 1
e 43 56 1
e 67 85 1
e 76 85 1
e 86 76 1
e 53 86 1
e 89 86 1
e 26 89 1
e 8 89 1
e 98 89 1
e 57 98 1
e 19 8 1
e 40 19 1
e 50 40 1
e 77 40 1
e 33 77 1
e 79 77 1
e 68 79 1
e 70 79 1
e 42 70 1
e 29 42 1
e 16 29 1
e 78 16 1
e 30 78 1
e 95 78 1
e 59 30 1
e 39 68 1
e 10 39 1
e 34 39 1
e 37 39 1
e 88 39 1
e 64 88 1
e 74 88 1
e 38 64 1
e 63 64 1
e 41 37 1
e 31 10 1
e 49 50 1
e 47 26 1
e 75 26 1
e 82 26 1
e 71 53 1
e 17 71 1
e 54 67 1
e 12 67 1
e 14 67 1
e 94 14 1
e 51 94 1
e 44 51 1
e 45 44 1
e 20 45 1
e 93 12 1
e 7 93 1
e 27 61 1
e 92 61 1
e 15 27 1
e 81 15 1
e 60 15 1
e 48 60 1
e 65 60 1
e 96 60 1
e 73 96 1
e 87 73 1
e 97 81 1
e 23 97 1
e 21 97 1
e 18 21 1
e 36 21 1
e 9 36 1
e 69 36 1
e 72 36 1
e 100 36 1
e 32 18 1
e 90 18 1
e 5 23 1
e 66 23 1
e 2 5 1
e 28 5 1
e 91 5 1
e 6 91 1
e 52 6 1
e 4 6 1
e 24 6 1
e 46 24 1
e 58 24 1
e 84 58 1
e 3 84 1
e 55 46 1
e 11 4 1
e 83 4 1
e 35 83 1
e 62 35 1
e 13 62 1
